5 6 97
3 1 1 4 1 4 2 13 29 29 61 61 93 
3 5 1 1 2 1 3 18 36 36 68 68 88 
3 2 1 5 2 3 3 5 41 41 69 69 97 
4 3 1 3 2 2 2 2 3 7 29 29 45 45 61 61 95 
7 2 1 1 1 1 1 4 1 4 1 2 2 2 2 0 5 5 11 11 13 13 22 22 24 38 41 41 44 
8 3 1 5 1 5 1 1 2 1 2 5 2 3 3 3 3 0 7 7 14 14 18 22 29 29 31 36 40 42 45 45 48 
